NAME : mtspf.pid6888.gtsp.241592042.tour
COMMENT : Length = 241592042
COMMENT : Found by LKH [Keld Helsgaun] Tue Feb 11 08:48:35 2025
TYPE : TOUR
DIMENSION : 135
TOUR_SECTION
1
50
51
48
49
102
103
100
101
107
104
105
106
93
94
95
92
34
35
32
33
79
76
77
78
91
88
89
90
4
109
110
111
108
37
38
39
36
66
67
64
65
54
55
52
53
63
60
61
62
19
16
17
18
5
11
3
7
70
71
68
69
114
115
112
113
129
130
131
128
124
125
126
127
6
135
132
133
134
72
73
74
75
83
80
81
82
119
116
117
118
30
31
28
29
85
86
87
84
10
59
56
57
58
14
25
26
27
24
96
97
98
99
12
22
23
20
21
122
123
120
121
42
43
40
41
13
8
46
47
44
45
9
15
2
-1
EOF
